[$Version]
update_info=kmail.upd:1,kmail.upd:4,kmail.upd:5,kmail.upd:6,kmail.upd:7,kmail.upd:8,kmail.upd:9,kmail.upd:3.1-update-identities,kmail.upd:3.1-use-identity-uoids,kmail.upd:3.1-new-mail-notification,kmail.upd:3.2-update-loop-on-goto-unread-settings,kmail.upd:3.1.4-dont-use-UOID-0-for-any-identity,kmail.upd:3.2-misc,kmail.upd:3.2-moves,kmail.upd:3.3-use-ID-for-accounts,kmail.upd:3.3-move-identities-to-own-file,kmail.upd:3.3-aegypten-kpgprc-to-kmailrc,kmail.upd:3.3-misc,kmail.upd:3.3b1-misc,kmail.upd:3.3-update-filter-rules

[Account 1]
Folder=117335346
Id=117335346
Name=UGS Server Mail
Type=imap
auth=*
host[$e]=$(/usr/bin/ugs-kde-settings SERVERNAME)
login[$e]=$(/usr/bin/ugs-kde-settings EMAILADDRESS)
port=993
sieve-support=true
use-ssl=true
locally-subscribed-folders=true

[Account 2]
Folder=1766400516
Id=1766400516
Name=UGS Server
Type=cachedimap
auth=*
host[$e]=$(/usr/bin/ugs-kde-settings SERVERNAME)
login[$e]=$(/usr/bin/ugs-kde-settings EMAILADDRESS)
port=993
sieve-support=true
use-ssl=true
locally-subscribed-folders=true

[Composer]
pref-charsets=us-ascii,iso-8859-1,locale,utf-8
previous-identity=

[Folder-117335346]
Compactable=true
ContentsType=0
ExpireAction=Delete
ExpireMessages=false
ExpireToFolder=
Id=117335346
Identity=0
IgnoreNewMail=false
ImapPath=/
MailingListArchiveAddress=
MailingListEnabled=false
MailingListFeatures=0
MailingListHandler=0
MailingListHelpAddress=
MailingListId=
MailingListPostingAddress=
MailingListSubscribeAddress=
MailingListUnsubscribeAddress=
NoContent=true
NormalIconPath=
PutRepliesInSameFolder=false
ReadExpireAge=3
ReadExpireUnits=3
ReadOnly=false
SystemLabel=UGS Server Mail
TotalMsgs=-1
UidValidity=
UnreadExpireAge=12
UnreadExpireUnits=0
UnreadIconPath=
UnreadMsgs=-1
UseCustomIcons=false
WhoField=
checkmail=true
isOpen=true

[Folder-1766400516]
Compactable=true
ContentsType=0
ExpireAction=Delete
ExpireMessages=false
ExpireToFolder=
Id=1766400516
Identity=0
IgnoreNewMail=false
ImapPath=/
MailingListArchiveAddress=
MailingListEnabled=false
MailingListFeatures=0
MailingListHandler=0
MailingListHelpAddress=
MailingListId=
MailingListPostingAddress=
MailingListSubscribeAddress=
MailingListUnsubscribeAddress=
NoContent=true
NormalIconPath=
PutRepliesInSameFolder=false
ReadExpireAge=3
ReadExpireUnits=3
ReadOnly=false
StatusChangedLocally=false
SystemLabel=UGS Server
TotalMsgs=-1
UnreadExpireAge=12
UnreadExpireUnits=0
UnreadIconPath=
UnreadMsgs=-1
UseCustomIcons=false
UserRights=0
WhoField=

[Folder-drafts]
Compactable=true
ContentsType=0
ExpireAction=Delete
ExpireMessages=false
ExpireToFolder=
Id=1453688402
Identity=0
IgnoreNewMail=false
MailingListArchiveAddress=
MailingListEnabled=false
MailingListFeatures=0
MailingListHandler=0
MailingListHelpAddress=
MailingListId=
MailingListPostingAddress=
MailingListSubscribeAddress=
MailingListUnsubscribeAddress=
NormalIconPath=
PutRepliesInSameFolder=false
ReadExpireAge=3
ReadExpireUnits=3
SystemLabel=
TotalMsgs=-1
UnreadExpireAge=12
UnreadExpireUnits=0
UnreadIconPath=
UnreadMsgs=-1
UseCustomIcons=false
WhoField=

[Folder-inbox]
Compactable=true
ContentsType=0
ExpireAction=Delete
ExpireMessages=false
ExpireToFolder=
Id=1624330002
Identity=0
IgnoreNewMail=false
MailingListArchiveAddress=
MailingListEnabled=false
MailingListFeatures=0
MailingListHandler=0
MailingListHelpAddress=
MailingListId=
MailingListPostingAddress=
MailingListSubscribeAddress=
MailingListUnsubscribeAddress=
NormalIconPath=
PutRepliesInSameFolder=false
ReadExpireAge=3
ReadExpireUnits=3
SystemLabel=
TotalMsgs=-1
UnreadExpireAge=12
UnreadExpireUnits=0
UnreadIconPath=
UnreadMsgs=-1
UseCustomIcons=false
WhoField=

[Folder-outbox]
Compactable=true
ContentsType=0
ExpireAction=Delete
ExpireMessages=false
ExpireToFolder=
Id=1293987489
Identity=0
IgnoreNewMail=false
MailingListArchiveAddress=
MailingListEnabled=false
MailingListFeatures=0
MailingListHandler=0
MailingListHelpAddress=
MailingListId=
MailingListPostingAddress=
MailingListSubscribeAddress=
MailingListUnsubscribeAddress=
NormalIconPath=
PutRepliesInSameFolder=false
ReadExpireAge=3
ReadExpireUnits=3
SystemLabel=
TotalMsgs=-1
UnreadExpireAge=12
UnreadExpireUnits=0
UnreadIconPath=
UnreadMsgs=-1
UseCustomIcons=false
WhoField=

[Folder-sent-mail]
Compactable=true
ContentsType=0
ExpireAction=Delete
ExpireMessages=false
ExpireToFolder=
Id=1549273780
Identity=0
IgnoreNewMail=false
MailingListArchiveAddress=
MailingListEnabled=false
MailingListFeatures=0
MailingListHandler=0
MailingListHelpAddress=
MailingListId=
MailingListPostingAddress=
MailingListSubscribeAddress=
MailingListUnsubscribeAddress=
NormalIconPath=
PutRepliesInSameFolder=false
ReadExpireAge=3
ReadExpireUnits=3
SystemLabel=
TotalMsgs=-1
UnreadExpireAge=12
UnreadExpireUnits=0
UnreadIconPath=
UnreadMsgs=-1
UseCustomIcons=false
WhoField=

[Folder-trash]
Compactable=true
ContentsType=0
ExpireAction=Delete
ExpireMessages=false
ExpireToFolder=
Id=1518402452
Identity=0
IgnoreNewMail=false
MailingListArchiveAddress=
MailingListEnabled=false
MailingListFeatures=0
MailingListHandler=0
MailingListHelpAddress=
MailingListId=
MailingListPostingAddress=
MailingListSubscribeAddress=
MailingListUnsubscribeAddress=
NormalIconPath=
PutRepliesInSameFolder=false
ReadExpireAge=3
ReadExpireUnits=3
SystemLabel=
TotalMsgs=-1
UnreadExpireAge=12
UnreadExpireUnits=0
UnreadIconPath=
UnreadMsgs=-1
UseCustomIcons=false
WhoField=

[General]
Default domain[$e]=$(/usr/bin/ugs-kde-settings SERVERNAME)
accounts=2
first-start=false
transports=1

[Geometry]
folderTree=250

[Groupware]
AutoAccept=false
AutoDeclConflict=false
Enabled=true
LegacyBodyInvites=true
LegacyMangleFromToHeaders=true

[IMAP Resource]
Enabled=true
ShowOnlyGroupwareFoldersForGroupwareAccount=true
TheIMAPResourceAccount=1766400516
TheIMAPResourceEnabled=true
TheIMAPResourceFolderParent=.1766400516.directory/INBOX
TheIMAPResourceStorageFormat=XML

[Reader]
showColorbar=true

[Startup]
update-level=16

[Transport 1]
auth=true
authtype=PLAIN
encryption=SSL
host[$e]=$(/usr/bin/ugs-kde-settings SERVERNAME)
name=UGS Server
pass=
port=465
storepass=true
type=smtp
user[$e]=$(/usr/bin/ugs-kde-settings EMAILADDRESS)
